c generated by sgen
p cnf 113 236
-2 -3 -4 0
-1 -3 -4 0
-1 -2 -4 0
-1 -2 -3 0
-6 -7 -8 0
-5 -7 -8 0
-5 -6 -8 0
-5 -6 -7 0
-10 -11 -12 0
-9 -11 -12 0
-9 -10 -12 0
-9 -10 -11 0
-14 -15 -16 0
-13 -15 -16 0
-13 -14 -16 0
-13 -14 -15 0
-18 -19 -20 0
-17 -19 -20 0
-17 -18 -20 0
-17 -18 -19 0
-22 -23 -24 0
-21 -23 -24 0
-21 -22 -24 0
-21 -22 -23 0
-26 -27 -28 0
-25 -27 -28 0
-25 -26 -28 0
-25 -26 -27 0
-30 -31 -32 0
-29 -31 -32 0
-29 -30 -32 0
-29 -30 -31 0
-34 -35 -36 0
-33 -35 -36 0
-33 -34 -36 0
-33 -34 -35 0
-38 -39 -40 0
-37 -39 -40 0
-37 -38 -40 0
-37 -38 -39 0
-42 -43 -44 0
-41 -43 -44 0
-41 -42 -44 0
-41 -42 -43 0
-46 -47 -48 0
-45 -47 -48 0
-45 -46 -48 0
-45 -46 -47 0
-50 -51 -52 0
-49 -51 -52 0
-49 -50 -52 0
-49 -50 -51 0
-54 -55 -56 0
-53 -55 -56 0
-53 -54 -56 0
-53 -54 -55 0
-58 -59 -60 0
-57 -59 -60 0
-57 -58 -60 0
-57 -58 -59 0
-62 -63 -64 0
-61 -63 -64 0
-61 -62 -64 0
-61 -62 -63 0
-66 -67 -68 0
-65 -67 -68 0
-65 -66 -68 0
-65 -66 -67 0
-70 -71 -72 0
-69 -71 -72 0
-69 -70 -72 0
-69 -70 -71 0
-74 -75 -76 0
-73 -75 -76 0
-73 -74 -76 0
-73 -74 -75 0
-78 -79 -80 0
-77 -79 -80 0
-77 -78 -80 0
-77 -78 -79 0
-82 -83 -84 0
-81 -83 -84 0
-81 -82 -84 0
-81 -82 -83 0
-86 -87 -88 0
-85 -87 -88 0
-85 -86 -88 0
-85 -86 -87 0
-90 -91 -92 0
-89 -91 -92 0
-89 -90 -92 0
-89 -90 -91 0
-94 -95 -96 0
-93 -95 -96 0
-93 -94 -96 0
-93 -94 -95 0
-98 -99 -100 0
-97 -99 -100 0
-97 -98 -100 0
-97 -98 -99 0
-102 -103 -104 0
-101 -103 -104 0
-101 -102 -104 0
-101 -102 -103 0
-106 -107 -108 0
-105 -107 -108 0
-105 -106 -108 0
-105 -106 -107 0
-109 -110 -111 0
-109 -110 -112 0
-109 -110 -113 0
-109 -111 -112 0
-109 -111 -113 0
-109 -112 -113 0
-110 -111 -112 0
-110 -111 -113 0
-110 -112 -113 0
-111 -112 -113 0
39 17 81 0
74 17 81 0
74 39 81 0
74 39 17 0
31 64 25 0
9 64 25 0
9 31 25 0
9 31 64 0
22 26 85 0
51 26 85 0
51 22 85 0
51 22 26 0
98 53 38 0
23 53 38 0
23 98 38 0
23 98 53 0
90 49 107 0
43 49 107 0
43 90 107 0
43 90 49 0
14 63 111 0
84 63 111 0
84 14 111 0
84 14 63 0
36 89 27 0
75 89 27 0
75 36 27 0
75 36 89 0
110 29 21 0
45 29 21 0
45 110 21 0
45 110 29 0
87 18 104 0
1 18 104 0
1 87 104 0
1 87 18 0
80 71 13 0
42 71 13 0
42 80 13 0
42 80 71 0
99 86 66 0
12 86 66 0
12 99 66 0
12 99 86 0
55 95 44 0
5 95 44 0
5 55 44 0
5 55 95 0
78 103 92 0
24 103 92 0
24 78 92 0
24 78 103 0
4 61 97 0
41 61 97 0
41 4 97 0
41 4 61 0
46 106 8 0
10 106 8 0
10 46 8 0
10 46 106 0
88 57 47 0
62 57 47 0
62 88 47 0
62 88 57 0
11 15 59 0
20 15 59 0
20 11 59 0
20 11 15 0
72 2 33 0
7 2 33 0
7 72 33 0
7 72 2 0
68 32 56 0
101 32 56 0
101 68 56 0
101 68 32 0
48 77 73 0
67 77 73 0
67 48 73 0
67 48 77 0
60 102 112 0
108 102 112 0
108 60 112 0
108 60 102 0
30 70 37 0
105 70 37 0
105 30 37 0
105 30 70 0
109 65 35 0
83 65 35 0
83 109 35 0
83 109 65 0
94 76 16 0
91 76 16 0
91 94 16 0
91 94 76 0
50 54 3 0
113 54 3 0
113 50 3 0
113 50 54 0
6 19 58 0
52 19 58 0
52 6 58 0
52 6 19 0
34 79 96 0
40 79 96 0
40 34 96 0
40 34 79 0
93 100 28 0
93 100 82 0
93 100 69 0
93 28 82 0
93 28 69 0
93 82 69 0
100 28 82 0
100 28 69 0
100 82 69 0
28 82 69 0
